g:[8425092044077884862482578323278459068353992299459889458335571079524477312664404590632795687683005980713316937043467352138605623981661928437580828565267783, 6117040776908381338765111905338872260356165103455374077975036371324255645238600350464967505205279855718253440421562868458445963807223658865840480240488136]

h:[2315986593962900166696835918637653025484300972068205827369154068404047380128001693307330858958282511343650998738235881762166332839395445720649249416972121, 4029660113918887761506030694045209505954958564442558800382656861516404167334661914273185881459271957268744628658788942864222625768109994886542546208093695]

f:[1447413253725399381740505246118438569247289524113924246530249685914600988209504785552106263746031589589900569718544509172283970528506916230085298321404663, 7010216952674498180976204990995871412269541794172767846601992622666224920696420450239624590669198415324568047173572367641644191917197473034278294329370905]